(set-logic QF_NRA_ODE)
(declare-fun v () Real [-15000.000000, 15000.000000])
(declare-fun t2 () Real [-15000.000000, 15000.000000])
(declare-fun t1 () Real [-15000.000000, 15000.000000])
(declare-fun riseTime () Real [-15000.000000, 15000.000000])
(declare-fun localTime () Real [-15000.000000, 15000.000000])
(declare-fun level () Real [-15000.000000, 15000.000000])
(declare-fun i () Real [-15000.000000, 15000.000000])
(declare-fun clock_time () Real [-15000.000000, 15000.000000])
(declare-fun v_0_0 () Real [-15000.000000, 15000.000000])
(declare-fun v_0_t () Real [-15000.000000, 15000.000000])
(declare-fun v_1_0 () Real [-15000.000000, 15000.000000])
(declare-fun v_1_t () Real [-15000.000000, 15000.000000])
(declare-fun v_2_0 () Real [-15000.000000, 15000.000000])
(declare-fun v_2_t () Real [-15000.000000, 15000.000000])
(declare-fun v_3_0 () Real [-15000.000000, 15000.000000])
(declare-fun v_3_t () Real [-15000.000000, 15000.000000])
(declare-fun v_4_0 () Real [-15000.000000, 15000.000000])
(declare-fun v_4_t () Real [-15000.000000, 15000.000000])
(declare-fun v_5_0 () Real [-15000.000000, 15000.000000])
(declare-fun v_5_t () Real [-15000.000000, 15000.000000])
(declare-fun v_6_0 () Real [-15000.000000, 15000.000000])
(declare-fun v_6_t () Real [-15000.000000, 15000.000000])
(declare-fun v_7_0 () Real [-15000.000000, 15000.000000])
(declare-fun v_7_t () Real [-15000.000000, 15000.000000])
(declare-fun v_8_0 () Real [-15000.000000, 15000.000000])
(declare-fun v_8_t () Real [-15000.000000, 15000.000000])
(declare-fun t2_0_0 () Real [-15000.000000, 15000.000000])
(declare-fun t2_0_t () Real [-15000.000000, 15000.000000])
(declare-fun t2_1_0 () Real [-15000.000000, 15000.000000])
(declare-fun t2_1_t () Real [-15000.000000, 15000.000000])
(declare-fun t2_2_0 () Real [-15000.000000, 15000.000000])
(declare-fun t2_2_t () Real [-15000.000000, 15000.000000])
(declare-fun t2_3_0 () Real [-15000.000000, 15000.000000])
(declare-fun t2_3_t () Real [-15000.000000, 15000.000000])
(declare-fun t2_4_0 () Real [-15000.000000, 15000.000000])
(declare-fun t2_4_t () Real [-15000.000000, 15000.000000])
(declare-fun t2_5_0 () Real [-15000.000000, 15000.000000])
(declare-fun t2_5_t () Real [-15000.000000, 15000.000000])
(declare-fun t2_6_0 () Real [-15000.000000, 15000.000000])
(declare-fun t2_6_t () Real [-15000.000000, 15000.000000])
(declare-fun t2_7_0 () Real [-15000.000000, 15000.000000])
(declare-fun t2_7_t () Real [-15000.000000, 15000.000000])
(declare-fun t2_8_0 () Real [-15000.000000, 15000.000000])
(declare-fun t2_8_t () Real [-15000.000000, 15000.000000])
(declare-fun t1_0_0 () Real [-15000.000000, 15000.000000])
(declare-fun t1_0_t () Real [-15000.000000, 15000.000000])
(declare-fun t1_1_0 () Real [-15000.000000, 15000.000000])
(declare-fun t1_1_t () Real [-15000.000000, 15000.000000])
(declare-fun t1_2_0 () Real [-15000.000000, 15000.000000])
(declare-fun t1_2_t () Real [-15000.000000, 15000.000000])
(declare-fun t1_3_0 () Real [-15000.000000, 15000.000000])
(declare-fun t1_3_t () Real [-15000.000000, 15000.000000])
(declare-fun t1_4_0 () Real [-15000.000000, 15000.000000])
(declare-fun t1_4_t () Real [-15000.000000, 15000.000000])
(declare-fun t1_5_0 () Real [-15000.000000, 15000.000000])
(declare-fun t1_5_t () Real [-15000.000000, 15000.000000])
(declare-fun t1_6_0 () Real [-15000.000000, 15000.000000])
(declare-fun t1_6_t () Real [-15000.000000, 15000.000000])
(declare-fun t1_7_0 () Real [-15000.000000, 15000.000000])
(declare-fun t1_7_t () Real [-15000.000000, 15000.000000])
(declare-fun t1_8_0 () Real [-15000.000000, 15000.000000])
(declare-fun t1_8_t () Real [-15000.000000, 15000.000000])
(declare-fun riseTime_0_0 () Real [-15000.000000, 15000.000000])
(declare-fun riseTime_0_t () Real [-15000.000000, 15000.000000])
(declare-fun riseTime_1_0 () Real [-15000.000000, 15000.000000])
(declare-fun riseTime_1_t () Real [-15000.000000, 15000.000000])
(declare-fun riseTime_2_0 () Real [-15000.000000, 15000.000000])
(declare-fun riseTime_2_t () Real [-15000.000000, 15000.000000])
(declare-fun riseTime_3_0 () Real [-15000.000000, 15000.000000])
(declare-fun riseTime_3_t () Real [-15000.000000, 15000.000000])
(declare-fun riseTime_4_0 () Real [-15000.000000, 15000.000000])
(declare-fun riseTime_4_t () Real [-15000.000000, 15000.000000])
(declare-fun riseTime_5_0 () Real [-15000.000000, 15000.000000])
(declare-fun riseTime_5_t () Real [-15000.000000, 15000.000000])
(declare-fun riseTime_6_0 () Real [-15000.000000, 15000.000000])
(declare-fun riseTime_6_t () Real [-15000.000000, 15000.000000])
(declare-fun riseTime_7_0 () Real [-15000.000000, 15000.000000])
(declare-fun riseTime_7_t () Real [-15000.000000, 15000.000000])
(declare-fun riseTime_8_0 () Real [-15000.000000, 15000.000000])
(declare-fun riseTime_8_t () Real [-15000.000000, 15000.000000])
(declare-fun localTime_0_0 () Real [-15000.000000, 15000.000000])
(declare-fun localTime_0_t () Real [-15000.000000, 15000.000000])
(declare-fun localTime_1_0 () Real [-15000.000000, 15000.000000])
(declare-fun localTime_1_t () Real [-15000.000000, 15000.000000])
(declare-fun localTime_2_0 () Real [-15000.000000, 15000.000000])
(declare-fun localTime_2_t () Real [-15000.000000, 15000.000000])
(declare-fun localTime_3_0 () Real [-15000.000000, 15000.000000])
(declare-fun localTime_3_t () Real [-15000.000000, 15000.000000])
(declare-fun localTime_4_0 () Real [-15000.000000, 15000.000000])
(declare-fun localTime_4_t () Real [-15000.000000, 15000.000000])
(declare-fun localTime_5_0 () Real [-15000.000000, 15000.000000])
(declare-fun localTime_5_t () Real [-15000.000000, 15000.000000])
(declare-fun localTime_6_0 () Real [-15000.000000, 15000.000000])
(declare-fun localTime_6_t () Real [-15000.000000, 15000.000000])
(declare-fun localTime_7_0 () Real [-15000.000000, 15000.000000])
(declare-fun localTime_7_t () Real [-15000.000000, 15000.000000])
(declare-fun localTime_8_0 () Real [-15000.000000, 15000.000000])
(declare-fun localTime_8_t () Real [-15000.000000, 15000.000000])
(declare-fun level_0_0 () Real [-15000.000000, 15000.000000])
(declare-fun level_0_t () Real [-15000.000000, 15000.000000])
(declare-fun level_1_0 () Real [-15000.000000, 15000.000000])
(declare-fun level_1_t () Real [-15000.000000, 15000.000000])
(declare-fun level_2_0 () Real [-15000.000000, 15000.000000])
(declare-fun level_2_t () Real [-15000.000000, 15000.000000])
(declare-fun level_3_0 () Real [-15000.000000, 15000.000000])
(declare-fun level_3_t () Real [-15000.000000, 15000.000000])
(declare-fun level_4_0 () Real [-15000.000000, 15000.000000])
(declare-fun level_4_t () Real [-15000.000000, 15000.000000])
(declare-fun level_5_0 () Real [-15000.000000, 15000.000000])
(declare-fun level_5_t () Real [-15000.000000, 15000.000000])
(declare-fun level_6_0 () Real [-15000.000000, 15000.000000])
(declare-fun level_6_t () Real [-15000.000000, 15000.000000])
(declare-fun level_7_0 () Real [-15000.000000, 15000.000000])
(declare-fun level_7_t () Real [-15000.000000, 15000.000000])
(declare-fun level_8_0 () Real [-15000.000000, 15000.000000])
(declare-fun level_8_t () Real [-15000.000000, 15000.000000])
(declare-fun i_0_0 () Real [-15000.000000, 15000.000000])
(declare-fun i_0_t () Real [-15000.000000, 15000.000000])
(declare-fun i_1_0 () Real [-15000.000000, 15000.000000])
(declare-fun i_1_t () Real [-15000.000000, 15000.000000])
(declare-fun i_2_0 () Real [-15000.000000, 15000.000000])
(declare-fun i_2_t () Real [-15000.000000, 15000.000000])
(declare-fun i_3_0 () Real [-15000.000000, 15000.000000])
(declare-fun i_3_t () Real [-15000.000000, 15000.000000])
(declare-fun i_4_0 () Real [-15000.000000, 15000.000000])
(declare-fun i_4_t () Real [-15000.000000, 15000.000000])
(declare-fun i_5_0 () Real [-15000.000000, 15000.000000])
(declare-fun i_5_t () Real [-15000.000000, 15000.000000])
(declare-fun i_6_0 () Real [-15000.000000, 15000.000000])
(declare-fun i_6_t () Real [-15000.000000, 15000.000000])
(declare-fun i_7_0 () Real [-15000.000000, 15000.000000])
(declare-fun i_7_t () Real [-15000.000000, 15000.000000])
(declare-fun i_8_0 () Real [-15000.000000, 15000.000000])
(declare-fun i_8_t () Real [-15000.000000, 15000.000000])
(declare-fun clock_time_0_0 () Real [-15000.000000, 15000.000000])
(declare-fun clock_time_0_t () Real [-15000.000000, 15000.000000])
(declare-fun clock_time_1_0 () Real [-15000.000000, 15000.000000])
(declare-fun clock_time_1_t () Real [-15000.000000, 15000.000000])
(declare-fun clock_time_2_0 () Real [-15000.000000, 15000.000000])
(declare-fun clock_time_2_t () Real [-15000.000000, 15000.000000])
(declare-fun clock_time_3_0 () Real [-15000.000000, 15000.000000])
(declare-fun clock_time_3_t () Real [-15000.000000, 15000.000000])
(declare-fun clock_time_4_0 () Real [-15000.000000, 15000.000000])
(declare-fun clock_time_4_t () Real [-15000.000000, 15000.000000])
(declare-fun clock_time_5_0 () Real [-15000.000000, 15000.000000])
(declare-fun clock_time_5_t () Real [-15000.000000, 15000.000000])
(declare-fun clock_time_6_0 () Real [-15000.000000, 15000.000000])
(declare-fun clock_time_6_t () Real [-15000.000000, 15000.000000])
(declare-fun clock_time_7_0 () Real [-15000.000000, 15000.000000])
(declare-fun clock_time_7_t () Real [-15000.000000, 15000.000000])
(declare-fun clock_time_8_0 () Real [-15000.000000, 15000.000000])
(declare-fun clock_time_8_t () Real [-15000.000000, 15000.000000])
(declare-fun time_0 () Real [-15000.000000, 15000.000000])
(declare-fun time_1 () Real [-15000.000000, 15000.000000])
(declare-fun time_2 () Real [-15000.000000, 15000.000000])
(declare-fun time_3 () Real [-15000.000000, 15000.000000])
(declare-fun time_4 () Real [-15000.000000, 15000.000000])
(declare-fun time_5 () Real [-15000.000000, 15000.000000])
(declare-fun time_6 () Real [-15000.000000, 15000.000000])
(declare-fun time_7 () Real [-15000.000000, 15000.000000])
(declare-fun time_8 () Real [-15000.000000, 15000.000000])
(declare-fun mode_0 () Real [1.000000, 8.000000])
(declare-fun mode_1 () Real [1.000000, 8.000000])
(declare-fun mode_2 () Real [1.000000, 8.000000])
(declare-fun mode_3 () Real [1.000000, 8.000000])
(declare-fun mode_4 () Real [1.000000, 8.000000])
(declare-fun mode_5 () Real [1.000000, 8.000000])
(declare-fun mode_6 () Real [1.000000, 8.000000])
(declare-fun mode_7 () Real [1.000000, 8.000000])
(declare-fun mode_8 () Real [1.000000, 8.000000])
(define-ode flow_1 ((= d/dt[clock_time] 1) (= d/dt[i] 0) (= d/dt[level] 0) (= d/dt[localTime] 1) (= d/dt[riseTime] 0) (= d/dt[t1] 0) (= d/dt[t2] 0) (= d/dt[v] 0.0001)))
(define-ode flow_2 ((= d/dt[clock_time] 1) (= d/dt[i] 0) (= d/dt[level] 0) (= d/dt[localTime] 1) (= d/dt[riseTime] 0) (= d/dt[t1] 0) (= d/dt[t2] 0) (= d/dt[v] (/ (- (+ 3 0.005) v) 1200))))
(define-ode flow_3 ((= d/dt[clock_time] 1) (= d/dt[i] 0) (= d/dt[level] 0) (= d/dt[localTime] 1) (= d/dt[riseTime] 0) (= d/dt[t1] 0) (= d/dt[t2] 0) (= d/dt[v] (/ (- (+ 4.2 0.005) v) 150))))
(define-ode flow_4 ((= d/dt[clock_time] 1) (= d/dt[i] (/ (- 0 i) 150)) (= d/dt[level] 0) (= d/dt[localTime] 1) (= d/dt[riseTime] 0) (= d/dt[t1] 0) (= d/dt[t2] 0) (= d/dt[v] 0)))
(define-ode flow_5 ((= d/dt[clock_time] 1) (= d/dt[i] 0) (= d/dt[level] 0) (= d/dt[localTime] 1) (= d/dt[riseTime] 0) (= d/dt[t1] 0) (= d/dt[t2] 0) (= d/dt[v] (/ (- 0 v) 1200))))
(define-ode flow_6 ((= d/dt[clock_time] 1) (= d/dt[i] 0) (= d/dt[level] 0) (= d/dt[localTime] 0) (= d/dt[riseTime] 0) (= d/dt[t1] 0) (= d/dt[t2] 0) (= d/dt[v] 0)))
(define-ode flow_7 ((= d/dt[clock_time] 0) (= d/dt[i] 0) (= d/dt[level] 0) (= d/dt[localTime] 0) (= d/dt[riseTime] 0) (= d/dt[t1] 0) (= d/dt[t2] 0) (= d/dt[v] 0)))
(define-ode flow_8 ((= d/dt[clock_time] 0) (= d/dt[i] 0) (= d/dt[level] 0) (= d/dt[localTime] 0) (= d/dt[riseTime] 0) (= d/dt[t1] 0) (= d/dt[t2] 0) (= d/dt[v] 0)))
(assert (and (and (= riseTime_0_0 0) (= localTime_0_0 0) (= clock_time_0_0 0) (= t2_0_0 0) (= t1_0_0 0) (= level_0_0 0) (= i_0_0 0) (= v_0_0 0)) (= mode_0 1) (or (and (= mode_1 2) (= level_0_t 1) (= riseTime_1_0 riseTime_0_t) (= localTime_1_0 localTime_0_t) (= clock_time_1_0 clock_time_0_t) (= t2_1_0 t2_0_t) (= t1_1_0 t1_0_t) (= level_1_0 level_0_t) (= v_1_0 v_0_t) (= i_1_0 0.05)) (and (= mode_1 2) (= level_0_t 0) (= riseTime_1_0 riseTime_0_t) (= localTime_1_0 localTime_0_t) (= clock_time_1_0 clock_time_0_t) (= t2_1_0 t2_0_t) (= t1_1_0 t1_0_t) (= level_1_0 level_0_t) (= v_1_0 v_0_t) (= i_1_0 0.05))) (= v_0_t (+ v_0_0 (* 0.0001 time_0))) (= t2_0_t (+ t2_0_0 (* 0 time_0))) (= t1_0_t (+ t1_0_0 (* 0 time_0))) (= riseTime_0_t (+ riseTime_0_0 (* 0 time_0))) (= localTime_0_t (+ localTime_0_0 (* 1 time_0))) (= level_0_t (+ level_0_0 (* 0 time_0))) (= i_0_t (+ i_0_0 (* 0 time_0))) (= clock_time_0_t (+ clock_time_0_0 (* 1 time_0))) (= [clock_time_0_t i_0_t level_0_t localTime_0_t riseTime_0_t t1_0_t t2_0_t v_0_t] (integral 0. time_0 [clock_time_0_0 i_0_0 level_0_0 localTime_0_0 riseTime_0_0 t1_0_0 t2_0_0 v_0_0] flow_1)) (= mode_0 1) (forall_t 1 [0 time_0] (and (= i_0_t 0) (<= v_0_t 4.2) (<= clock_time_0_t 15000) (<= 0 v_0_t))) (= i_0_0 0) (<= v_0_0 4.2) (<= clock_time_0_0 15000) (<= 0 v_0_0) (= i_0_t 0) (<= v_0_t 4.2) (<= clock_time_0_t 15000) (<= 0 v_0_t) (or (and (= mode_2 3) (<= v_1_t 3) (= level_1_t 1) (>= v_1_t (- 3 0.005)) (= riseTime_2_0 riseTime_1_t) (= localTime_2_0 localTime_1_t) (= clock_time_2_0 clock_time_1_t) (= t2_2_0 t2_1_t) (= t1_2_0 t1_1_t) (= level_2_0 level_1_t) (= v_2_0 v_1_t) (= i_2_0 1)) (and (= mode_2 7) (= v_1_t (* 0.1 4.2)) (= level_1_t 0) (> (/ (- (+ 3 0.005) v_1_t) 1200) 0) (= riseTime_2_0 riseTime_1_t) (= localTime_2_0 localTime_1_t) (= t2_2_0 t2_1_t) (= t1_2_0 t1_1_t) (= level_2_0 level_1_t) (= i_2_0 i_1_t) (= v_2_0 v_1_t) (= clock_time_2_0 0)) (and (= mode_2 3) (<= v_1_t 3) (= level_1_t 0) (>= v_1_t (- 3 0.005)) (= riseTime_2_0 riseTime_1_t) (= localTime_2_0 localTime_1_t) (= clock_time_2_0 clock_time_1_t) (= t2_2_0 t2_1_t) (= t1_2_0 t1_1_t) (= level_2_0 level_1_t) (= v_2_0 v_1_t) (= i_2_0 1))) (= t2_1_t (+ t2_1_0 (* 0 time_1))) (= t1_1_t (+ t1_1_0 (* 0 time_1))) (= riseTime_1_t (+ riseTime_1_0 (* 0 time_1))) (= localTime_1_t (+ localTime_1_0 (* 1 time_1))) (= level_1_t (+ level_1_0 (* 0 time_1))) (= i_1_t (+ i_1_0 (* 0 time_1))) (= clock_time_1_t (+ clock_time_1_0 (* 1 time_1))) (= [clock_time_1_t i_1_t level_1_t localTime_1_t riseTime_1_t t1_1_t t2_1_t v_1_t] (integral 0. time_1 [clock_time_1_0 i_1_0 level_1_0 localTime_1_0 riseTime_1_0 t1_1_0 t2_1_0 v_1_0] flow_2)) (= mode_1 2) (forall_t 2 [0 time_1] (and (= i_1_t 0.05) (<= v_1_t 3) (<= clock_time_1_t 15000) (<= 0 v_1_t))) (= i_1_0 0.05) (<= v_1_0 3) (<= clock_time_1_0 15000) (<= 0 v_1_0) (= i_1_t 0.05) (<= v_1_t 3) (<= clock_time_1_t 15000) (<= 0 v_1_t) (= v_2_t (+ v_2_0 (* 0 time_2))) (= t2_2_t (+ t2_2_0 (* 0 time_2))) (= t1_2_t (+ t1_2_0 (* 0 time_2))) (= riseTime_2_t (+ riseTime_2_0 (* 0 time_2))) (= localTime_2_t (+ localTime_2_0 (* 0 time_2))) (= level_2_t (+ level_2_0 (* 0 time_2))) (= i_2_t (+ i_2_0 (* 0 time_2))) (= clock_time_2_t (+ clock_time_2_0 (* 0 time_2))) (= [clock_time_2_t i_2_t level_2_t localTime_2_t riseTime_2_t t1_2_t t2_2_t v_2_t] (integral 0. time_2 [clock_time_2_0 i_2_0 level_2_0 localTime_2_0 riseTime_2_0 t1_2_0 t2_2_0 v_2_0] flow_7)) (= mode_2 7) (forall_t 7 [0 time_2] (and (= i_2_t 0.05) (<= v_2_t 3) (<= clock_time_2_t 15000) (<= 0 v_2_t))) (= i_2_0 0.05) (<= v_2_0 3) (<= clock_time_2_0 15000) (<= 0 v_2_0) (= i_2_t 0.05) (<= v_2_t 3) (<= clock_time_2_t 15000) (<= 0 v_2_t) (= mode_3 2) (= v_2_t (* 0.1 4.2)) (= level_2_t 0) (> (/ (- (+ 3 0.005) v_2_t) 1200) 0) (= riseTime_3_0 riseTime_2_t) (= clock_time_3_0 clock_time_2_t) (= t2_3_0 t2_2_t) (= i_3_0 i_2_t) (= v_3_0 v_2_t) (= t1_3_0 clock_time_2_t) (= level_3_0 1) (= localTime_3_0 0) (or (and (= mode_4 3) (<= v_3_t 3) (= level_3_t 1) (>= v_3_t (- 3 0.005)) (= riseTime_4_0 riseTime_3_t) (= localTime_4_0 localTime_3_t) (= clock_time_4_0 clock_time_3_t) (= t2_4_0 t2_3_t) (= t1_4_0 t1_3_t) (= level_4_0 level_3_t) (= v_4_0 v_3_t) (= i_4_0 1)) (and (= mode_4 7) (= v_3_t (* 0.1 4.2)) (= level_3_t 0) (> (/ (- (+ 3 0.005) v_3_t) 1200) 0) (= riseTime_4_0 riseTime_3_t) (= localTime_4_0 localTime_3_t) (= t2_4_0 t2_3_t) (= t1_4_0 t1_3_t) (= level_4_0 level_3_t) (= i_4_0 i_3_t) (= v_4_0 v_3_t) (= clock_time_4_0 0)) (and (= mode_4 3) (<= v_3_t 3) (= level_3_t 0) (>= v_3_t (- 3 0.005)) (= riseTime_4_0 riseTime_3_t) (= localTime_4_0 localTime_3_t) (= clock_time_4_0 clock_time_3_t) (= t2_4_0 t2_3_t) (= t1_4_0 t1_3_t) (= level_4_0 level_3_t) (= v_4_0 v_3_t) (= i_4_0 1))) (= t2_3_t (+ t2_3_0 (* 0 time_3))) (= t1_3_t (+ t1_3_0 (* 0 time_3))) (= riseTime_3_t (+ riseTime_3_0 (* 0 time_3))) (= localTime_3_t (+ localTime_3_0 (* 1 time_3))) (= level_3_t (+ level_3_0 (* 0 time_3))) (= i_3_t (+ i_3_0 (* 0 time_3))) (= clock_time_3_t (+ clock_time_3_0 (* 1 time_3))) (= [clock_time_3_t i_3_t level_3_t localTime_3_t riseTime_3_t t1_3_t t2_3_t v_3_t] (integral 0. time_3 [clock_time_3_0 i_3_0 level_3_0 localTime_3_0 riseTime_3_0 t1_3_0 t2_3_0 v_3_0] flow_2)) (= mode_3 2) (forall_t 2 [0 time_3] (and (= i_3_t 0.05) (<= v_3_t 3) (<= clock_time_3_t 15000) (<= 0 v_3_t))) (= i_3_0 0.05) (<= v_3_0 3) (<= clock_time_3_0 15000) (<= 0 v_3_0) (= i_3_t 0.05) (<= v_3_t 3) (<= clock_time_3_t 15000) (<= 0 v_3_t) (= v_4_t (+ v_4_0 (* 0 time_4))) (= t2_4_t (+ t2_4_0 (* 0 time_4))) (= t1_4_t (+ t1_4_0 (* 0 time_4))) (= riseTime_4_t (+ riseTime_4_0 (* 0 time_4))) (= localTime_4_t (+ localTime_4_0 (* 0 time_4))) (= level_4_t (+ level_4_0 (* 0 time_4))) (= i_4_t (+ i_4_0 (* 0 time_4))) (= clock_time_4_t (+ clock_time_4_0 (* 0 time_4))) (= [clock_time_4_t i_4_t level_4_t localTime_4_t riseTime_4_t t1_4_t t2_4_t v_4_t] (integral 0. time_4 [clock_time_4_0 i_4_0 level_4_0 localTime_4_0 riseTime_4_0 t1_4_0 t2_4_0 v_4_0] flow_7)) (= mode_4 7) (forall_t 7 [0 time_4] (and (= i_4_t 0.05) (<= v_4_t 3) (<= clock_time_4_t 15000) (<= 0 v_4_t))) (= i_4_0 0.05) (<= v_4_0 3) (<= clock_time_4_0 15000) (<= 0 v_4_0) (= i_4_t 0.05) (<= v_4_t 3) (<= clock_time_4_t 15000) (<= 0 v_4_t) (= mode_5 2) (= v_4_t (* 0.1 4.2)) (= level_4_t 0) (> (/ (- (+ 3 0.005) v_4_t) 1200) 0) (= riseTime_5_0 riseTime_4_t) (= clock_time_5_0 clock_time_4_t) (= t2_5_0 t2_4_t) (= i_5_0 i_4_t) (= v_5_0 v_4_t) (= t1_5_0 clock_time_4_t) (= level_5_0 1) (= localTime_5_0 0) (or (and (= mode_6 3) (<= v_5_t 3) (= level_5_t 1) (>= v_5_t (- 3 0.005)) (= riseTime_6_0 riseTime_5_t) (= localTime_6_0 localTime_5_t) (= clock_time_6_0 clock_time_5_t) (= t2_6_0 t2_5_t) (= t1_6_0 t1_5_t) (= level_6_0 level_5_t) (= v_6_0 v_5_t) (= i_6_0 1)) (and (= mode_6 7) (= v_5_t (* 0.1 4.2)) (= level_5_t 0) (> (/ (- (+ 3 0.005) v_5_t) 1200) 0) (= riseTime_6_0 riseTime_5_t) (= localTime_6_0 localTime_5_t) (= t2_6_0 t2_5_t) (= t1_6_0 t1_5_t) (= level_6_0 level_5_t) (= i_6_0 i_5_t) (= v_6_0 v_5_t) (= clock_time_6_0 0)) (and (= mode_6 3) (<= v_5_t 3) (= level_5_t 0) (>= v_5_t (- 3 0.005)) (= riseTime_6_0 riseTime_5_t) (= localTime_6_0 localTime_5_t) (= clock_time_6_0 clock_time_5_t) (= t2_6_0 t2_5_t) (= t1_6_0 t1_5_t) (= level_6_0 level_5_t) (= v_6_0 v_5_t) (= i_6_0 1))) (= t2_5_t (+ t2_5_0 (* 0 time_5))) (= t1_5_t (+ t1_5_0 (* 0 time_5))) (= riseTime_5_t (+ riseTime_5_0 (* 0 time_5))) (= localTime_5_t (+ localTime_5_0 (* 1 time_5))) (= level_5_t (+ level_5_0 (* 0 time_5))) (= i_5_t (+ i_5_0 (* 0 time_5))) (= clock_time_5_t (+ clock_time_5_0 (* 1 time_5))) (= [clock_time_5_t i_5_t level_5_t localTime_5_t riseTime_5_t t1_5_t t2_5_t v_5_t] (integral 0. time_5 [clock_time_5_0 i_5_0 level_5_0 localTime_5_0 riseTime_5_0 t1_5_0 t2_5_0 v_5_0] flow_2)) (= mode_5 2) (forall_t 2 [0 time_5] (and (= i_5_t 0.05) (<= v_5_t 3) (<= clock_time_5_t 15000) (<= 0 v_5_t))) (= i_5_0 0.05) (<= v_5_0 3) (<= clock_time_5_0 15000) (<= 0 v_5_0) (= i_5_t 0.05) (<= v_5_t 3) (<= clock_time_5_t 15000) (<= 0 v_5_t) (or (and (= mode_7 4) (<= v_6_t (+ 4.2 0.005)) (= level_6_t 1) (<= (- 4.2 0.005) v_6_t) (= riseTime_7_0 riseTime_6_t) (= localTime_7_0 localTime_6_t) (= clock_time_7_0 clock_time_6_t) (= t2_7_0 t2_6_t) (= t1_7_0 t1_6_t) (= level_7_0 level_6_t) (= i_7_0 i_6_t) (= v_7_0 v_6_t)) (and (= mode_7 8) (<= 0 localTime_6_t) (= v_6_t (* 0.9 4.2)) (= level_6_t 1) (> (/ (- (+ 4.2 0.005) v_6_t) 150) 0) (= riseTime_7_0 riseTime_6_t) (= localTime_7_0 localTime_6_t) (= clock_time_7_0 clock_time_6_t) (= t1_7_0 t1_6_t) (= level_7_0 level_6_t) (= i_7_0 i_6_t) (= v_7_0 v_6_t) (= t2_7_0 clock_time_6_t)) (and (= mode_7 4) (<= v_6_t (+ 4.2 0.005)) (= level_6_t 0) (<= (- 4.2 0.005) v_6_t) (= riseTime_7_0 riseTime_6_t) (= localTime_7_0 localTime_6_t) (= clock_time_7_0 clock_time_6_t) (= t2_7_0 t2_6_t) (= t1_7_0 t1_6_t) (= level_7_0 level_6_t) (= i_7_0 i_6_t) (= v_7_0 v_6_t))) (= t2_6_t (+ t2_6_0 (* 0 time_6))) (= t1_6_t (+ t1_6_0 (* 0 time_6))) (= riseTime_6_t (+ riseTime_6_0 (* 0 time_6))) (= localTime_6_t (+ localTime_6_0 (* 1 time_6))) (= level_6_t (+ level_6_0 (* 0 time_6))) (= i_6_t (+ i_6_0 (* 0 time_6))) (= clock_time_6_t (+ clock_time_6_0 (* 1 time_6))) (= [clock_time_6_t i_6_t level_6_t localTime_6_t riseTime_6_t t1_6_t t2_6_t v_6_t] (integral 0. time_6 [clock_time_6_0 i_6_0 level_6_0 localTime_6_0 riseTime_6_0 t1_6_0 t2_6_0 v_6_0] flow_3)) (= mode_6 3) (forall_t 3 [0 time_6] (and (<= i_6_t 1) (<= 0 i_6_t) (<= v_6_t 4.2) (<= clock_time_6_t 15000) (<= (- 3 0.005) v_6_t))) (<= i_6_0 1) (<= 0 i_6_0) (<= v_6_0 4.2) (<= clock_time_6_0 15000) (<= (- 3 0.005) v_6_0) (<= i_6_t 1) (<= 0 i_6_t) (<= v_6_t 4.2) (<= clock_time_6_t 15000) (<= (- 3 0.005) v_6_t) (= v_7_t (+ v_7_0 (* 0 time_7))) (= t2_7_t (+ t2_7_0 (* 0 time_7))) (= t1_7_t (+ t1_7_0 (* 0 time_7))) (= riseTime_7_t (+ riseTime_7_0 (* 0 time_7))) (= localTime_7_t (+ localTime_7_0 (* 0 time_7))) (= level_7_t (+ level_7_0 (* 0 time_7))) (= i_7_t (+ i_7_0 (* 0 time_7))) (= clock_time_7_t (+ clock_time_7_0 (* 0 time_7))) (= [clock_time_7_t i_7_t level_7_t localTime_7_t riseTime_7_t t1_7_t t2_7_t v_7_t] (integral 0. time_7 [clock_time_7_0 i_7_0 level_7_0 localTime_7_0 riseTime_7_0 t1_7_0 t2_7_0 v_7_0] flow_8)) (= mode_7 8) (forall_t 8 [0 time_7] (and (<= i_7_t 1) (<= 0 i_7_t) (<= v_7_t 4.2) (<= clock_time_7_t 15000) (<= (- 3 0.005) v_7_t))) (<= i_7_0 1) (<= 0 i_7_0) (<= v_7_0 4.2) (<= clock_time_7_0 15000) (<= (- 3 0.005) v_7_0) (<= i_7_t 1) (<= 0 i_7_t) (<= v_7_t 4.2) (<= clock_time_7_t 15000) (<= (- 3 0.005) v_7_t) (= mode_8 6) (<= 0 localTime_7_t) (= v_7_t (* 0.9 4.2)) (= level_7_t 1) (> (/ (- (+ 4.2 0.005) v_7_t) 150) 0) (= t2_8_0 t2_7_t) (= t1_8_0 t1_7_t) (= i_8_0 i_7_t) (= v_8_0 v_7_t) (= riseTime_8_0 (- t2_7_t t1_7_t)) (= clock_time_8_0 0) (= level_8_0 0) (= localTime_8_0 0) (= v_8_t (+ v_8_0 (* 0 time_8))) (= t2_8_t (+ t2_8_0 (* 0 time_8))) (= t1_8_t (+ t1_8_0 (* 0 time_8))) (= riseTime_8_t (+ riseTime_8_0 (* 0 time_8))) (= localTime_8_t (+ localTime_8_0 (* 0 time_8))) (= level_8_t (+ level_8_0 (* 0 time_8))) (= i_8_t (+ i_8_0 (* 0 time_8))) (= clock_time_8_t (+ clock_time_8_0 (* 1 time_8))) (= [clock_time_8_t i_8_t level_8_t localTime_8_t riseTime_8_t t1_8_t t2_8_t v_8_t] (integral 0. time_8 [clock_time_8_0 i_8_0 level_8_0 localTime_8_0 riseTime_8_0 t1_8_0 t2_8_0 v_8_0] flow_6)) (= mode_8 6) (forall_t 6 [0 time_8] (<= clock_time_8_t 1)) (<= clock_time_8_t 1) (<= clock_time_8_0 1) (= mode_8 6) (<= riseTime_8_t 9595) (>= riseTime_8_t 4189)))
(check-sat)
(exit)
